Please solve the following SAT Problem encoded in DIMACS format, only return a single solution without explanations, if there is any: 
p cnf 5 12
-5 2 -4 0
-5 2 1 0
-2 -4 -5 0
-3 -4 -2 0
-5 -2 -4 0
1 -4 -5 0
-5 -4 1 0
-3 2 -5 0
5 -4 2 0
1 2 -4 0
4 -3 2 0
4 1 -3 0

